NAME: GRASP_25_16
TYPE: TSP
COMMENT: line_25_16
DIMENSION: 25
EDGE_WEIGHT_TYPE: EUC_2D
NODE_COORD_SECTION
1 1620 3998
2 4647 798
3 2234 3985
4 124 592
5 3040 1732
6 4012 1932
7 589 4366
8 1058 2930
9 3873 496
10 4468 3553
11 1989 4546
12 1800 2959
13 4124 1672
14 809 1228
15 2701 2665
16 1444 141
17 1636 2948
18 4325 1415
19 330 4369
20 42 4233
21 2409 1449
22 652 1183
23 4794 628
24 4820 2575
25 2103 102
